data;

# The locations found for this situation
set LOCATION := L1 L2 L3 L4;

# cost of tranposting among locations
param COST:	L1	L2	L3	L4 :=
L1         	100	10	10	 2
L2          	10 	100 	100	 2 
L3          	10 	100 	100	 6     
L4           	2	 2	 6 	100;

# Availability vector
# Positive values imply available scooters
# Negative values imply demanded scooters 
param AVAILABILITY :=
L1      2
L2     -4
L3     -4
L4      6;

end;
